unknown
(model
; cardinality of BoundSet is 4
(declare-sort BoundSet 0)
; rep: @uc_BoundSet_0
; rep: @uc_BoundSet_1
; rep: @uc_BoundSet_2
; rep: @uc_BoundSet_3
; cardinality of UnboundSet is 1
(declare-sort UnboundSet 0)
(declare-fun groundTerm_5 () UnboundSet)
(define-fun Overpowers ((BOUND_VARIABLE_443 BoundSet) (BOUND_VARIABLE_444 BoundSet)) Bool true)
(define-fun IsFrom ((BOUND_VARIABLE_443 BoundSet) (BOUND_VARIABLE_444 BoundSet)) Bool true)
(define-fun LeadsTo ((BOUND_VARIABLE_443 BoundSet) (BOUND_VARIABLE_444 BoundSet)) Bool true)
(define-fun IsDueTo ((BOUND_VARIABLE_443 BoundSet) (BOUND_VARIABLE_444 BoundSet)) Bool false)
)
sat
(model
; cardinality of BoundSet is 1
(declare-sort BoundSet 0)
; rep: @uc_BoundSet_0
; cardinality of UnboundSet is 1
(declare-sort UnboundSet 0)
(declare-fun groundTerm_7 () UnboundSet)
(define-fun Overpowers ((BOUND_VARIABLE_497 BoundSet) (BOUND_VARIABLE_498 BoundSet)) Bool true)
(define-fun IsFrom ((BOUND_VARIABLE_497 BoundSet) (BOUND_VARIABLE_498 BoundSet)) Bool true)
(define-fun LeadsTo ((BOUND_VARIABLE_497 BoundSet) (BOUND_VARIABLE_498 BoundSet)) Bool true)
(define-fun IsDueTo ((BOUND_VARIABLE_497 BoundSet) (BOUND_VARIABLE_498 BoundSet)) Bool false)
)
